
Gurobi 9.5.0 (linux64) logging started Wed Nov  8 12:06:12 2023

Set parameter LogFile to value "/lustre1/scratch/348/vsc34888/JointResearch/05.Models/06.Benchmarking/F.Representative_days_based_on_Line_Benefit_NN_OC_fy_1/9n_ByStages_nc20/openStarNet_9n_ByStages_nc20.log"
Set parameter Method to value 2
Set parameter MIPFocus to value 1
Set parameter Presolve to value 2
Set parameter RINS to value 100
Set parameter MIPGap to value 0.01
Set parameter Threads to value 36
Set parameter TimeLimit to value 604800
Set parameter IterationLimit to value 760000000
Gurobi Optimizer version 9.5.0 build v9.5.0rc5 (linux64)
Thread count: 36 physical cores, 36 logical processors, using up to 36 threads
Optimize a model with 5243 rows, 2816 columns and 16376 nonzeros
Model fingerprint: 0x67b6a5b5
Variable types: 2780 continuous, 36 integer (36 binary)
Coefficient statistics:
  Matrix range     [8e-04, 5e+03]
  Objective range  [1e+00, 1e+00]
  Bounds range     [5e-03, 2e+00]
  RHS range        [8e-04, 1e+00]
Presolve removed 1703 rows and 864 columns
Presolve time: 0.02s
Presolved: 3540 rows, 1952 columns, 12536 nonzeros
Variable types: 1916 continuous, 36 integer (36 binary)
Found heuristic solution: objective 885.7851189
Root relaxation presolved: 3540 rows, 1952 columns, 12536 nonzeros

Root barrier log...

Ordering time: 0.07s

Barrier statistics:
 AA' NZ     : 1.542e+05
 Factor NZ  : 1.047e+06 (roughly 10 MB of memory)
 Factor Ops : 5.726e+08 (less than 1 second per iteration)
 Threads    : 36

                  Objective                Residual
Iter       Primal          Dual         Primal    Dual     Compl     Time
   0   3.57557989e+05 -3.44715673e+07  6.37e+00 5.29e+02  1.49e+04     0s
   1   4.36738642e+04 -1.00245365e+07  7.03e-01 8.29e-11  1.96e+03     0s
   2   1.15654195e+04 -1.28392115e+06  2.23e-13 1.18e-10  1.84e+02     0s
   3   5.13653752e+03 -4.01649057e+04  1.43e-12 2.90e-11  6.45e+00     0s
   4   9.03968436e+02 -7.84715826e+03  7.38e-13 5.01e-12  1.25e+00     0s
   5   5.05789115e+02 -2.36318369e+03  4.11e-13 1.82e-12  4.08e-01     0s
   6   3.79367076e+02 -6.92245486e+02  3.36e-13 1.82e-12  1.53e-01     0s
   7   2.15550264e+02 -2.20738158e+02  5.10e-13 1.82e-12  6.21e-02     0s
   8   1.17658893e+02  2.91344631e+01  3.57e-13 3.64e-12  1.26e-02     0s
   9   9.26475568e+01  6.98394402e+01  9.00e-13 3.64e-12  3.25e-03     0s
  10   8.63998414e+01  8.30342500e+01  1.31e-12 2.73e-12  4.79e-04     0s
  11   8.49504136e+01  8.40476934e+01  2.59e-12 1.82e-12  1.29e-04     0s
  12   8.48120134e+01  8.47009008e+01  1.77e-11 1.82e-12  1.58e-05     0s
  13   8.47839667e+01  8.47555091e+01  2.43e-10 1.82e-12  4.05e-06     0s
  14   8.47809519e+01  8.47807414e+01  2.77e-11 1.82e-12  3.00e-08     0s
  15   8.47809016e+01  8.47809014e+01  1.98e-10 1.82e-12  3.00e-11     0s

Barrier solved model in 15 iterations and 0.50 seconds (0.17 work units)
Optimal objective 8.47809016e+01


Root relaxation: objective 8.478090e+01, 151 iterations, 0.47 seconds (0.13 work units)

    Nodes    |    Current Node    |     Objective Bounds      |     Work
 Expl Unexpl |  Obj  Depth IntInf | Incumbent    BestBd   Gap | It/Node Time

     0     0   84.78090    0    6  885.78512   84.78090  90.4%     -    0s
H    0     0                     777.0549372   84.78090  89.1%     -    0s
     0     0   92.61471    0    3  777.05494   92.61471  88.1%     -    0s
H    0     0                      94.5672140   92.61471  2.06%     -    0s
H    0     0                      93.7679214   92.61471  1.23%     -    0s
     0     0   92.61471    0    2   93.76792   92.61471  1.23%     -    0s

Cutting planes:
  Gomory: 1
  Implied bound: 4
  MIR: 53

Explored 1 nodes (273 simplex iterations) in 0.59 seconds (0.22 work units)
Thread count was 36 (of 36 available processors)

Solution count 4: 93.7679 94.5672 777.055 885.785 

Optimal solution found (tolerance 1.00e-02)
Best objective 9.376792137147e+01, best bound 9.336520048263e+01, gap 0.4295%

Gurobi 9.5.0 (linux64) logging started Wed Nov  8 12:06:13 2023

Set parameter LogFile to value "/lustre1/scratch/348/vsc34888/JointResearch/05.Models/06.Benchmarking/F.Representative_days_based_on_Line_Benefit_NN_OC_fy_1/9n_ByStages_nc20/openStarNet_9n_ByStages_nc20.log"
Set parameter Method to value 2
Set parameter MIPFocus to value 1
Set parameter Presolve to value 2
Set parameter RINS to value 100
Set parameter MIPGap to value 0.01
Set parameter Threads to value 36
Set parameter TimeLimit to value 604800
Set parameter IterationLimit to value 760000000
No parameters matching 'relax_integrality' found
Gurobi Optimizer version 9.5.0 build v9.5.0rc5 (linux64)
Thread count: 36 physical cores, 36 logical processors, using up to 36 threads
Optimize a model with 5243 rows, 2780 columns and 13460 nonzeros
Model fingerprint: 0xad265693
Coefficient statistics:
  Matrix range     [8e-04, 5e+03]
  Objective range  [1e+00, 1e+00]
  Bounds range     [5e-03, 2e+00]
  RHS range        [8e-04, 2e+01]
Presolve removed 4523 rows and 1524 columns
Presolve time: 0.01s
Presolved: 720 rows, 1256 columns, 2756 nonzeros

Ordering time: 0.00s

Barrier statistics:
 AA' NZ     : 2.020e+03
 Factor NZ  : 7.400e+03 (roughly 1 MB of memory)
 Factor Ops : 9.116e+04 (less than 1 second per iteration)
 Threads    : 1

                  Objective                Residual
Iter       Primal          Dual         Primal    Dual     Compl     Time
   0   4.08727589e+05 -2.03750337e+07  4.21e+00 1.82e-12  1.79e+04     0s
   1   6.02149227e+04 -4.12620330e+06  4.61e-01 1.09e-11  2.18e+03     0s
   2   1.40633587e+04 -6.67703325e+05  1.38e-03 9.93e-12  2.48e+02     0s
   3   7.04211420e+03 -4.95201682e+04  3.42e-05 5.46e-12  2.06e+01     0s
   4   1.53504368e+03 -5.79831347e+03  7.72e-09 3.64e-12  2.66e+00     0s
   5   5.86160024e+02 -1.55898053e+03  9.77e-10 3.64e-12  7.79e-01     0s
   6   3.46223470e+02 -3.20718422e+02  2.50e-10 1.82e-12  2.42e-01     0s
   7   1.74701102e+02 -4.56730027e+01  5.93e-11 3.64e-12  8.01e-02     0s
   8   1.13093779e+02  6.38498222e+01  9.80e-12 3.64e-12  1.79e-02     0s
   9   9.67665989e+01  8.59358316e+01  1.17e-12 1.82e-12  3.94e-03     0s
  10   9.43400329e+01  9.25711027e+01  2.89e-13 3.64e-12  6.43e-04     0s
  11   9.37969540e+01  9.35234125e+01  2.46e-12 1.82e-12  9.94e-05     0s
  12   9.37722934e+01  9.36948042e+01  1.15e-12 3.64e-12  2.82e-05     0s
  13   9.37684834e+01  9.37669203e+01  6.25e-13 3.64e-12  5.68e-07     0s
  14   9.37679219e+01  9.37679204e+01  1.12e-12 3.64e-12  5.68e-10     0s
  15   9.37679214e+01  9.37679214e+01  1.82e-12 1.82e-12  5.68e-13     0s

Barrier solved model in 15 iterations and 0.02 seconds (0.01 work units)
Optimal objective 9.37679214e+01

Crossover log...

     235 DPushes remaining with DInf 0.0000000e+00                 0s
       0 DPushes remaining with DInf 0.0000000e+00                 0s

      20 PPushes remaining with PInf 0.0000000e+00                 0s
       0 PPushes remaining with PInf 0.0000000e+00                 0s

  Push phase complete: Pinf 0.0000000e+00, Dinf 9.9031894e-14      0s

Iteration    Objective       Primal Inf.    Dual Inf.      Time
      46    9.3767921e+01   0.000000e+00   0.000000e+00      0s

Solved in 46 iterations and 0.02 seconds (0.01 work units)
Optimal objective  9.376792137e+01
